DualBounds-Example/results/ExampleConfig/MS-county-step-max-45.sol
# Objective value = 1.6647764604658966e+00
B0(5) 0
B1(5) 0
B2(5) 0
B3(5) 1
B4(5) 0
B5(5) 1
B6(5) 0
B7(5) 0
B8(5) 0
B9(5) 0
B10(5) 0
B11(5) 1
B12(5) 0
B13(5) 1
B14(5) 0
B15(5) 0
B16(5) 0
B17(5) 0
B18(5) 0
B19(5) 1
B20(5) 0
B21(5) 0
B22(5) 1
B23(5) 0
B24(5) 0
B25(5) 1
B26(5) 0
B27(5) 0
B28(5) 0
B29(5) 0
B30(5) 0
B31(5) 1
B32(5) 0
B33(5) 0
B34(5) 0
B35(5) 1
B36(5) 0
B37(5) 1
B38(5) 0
B39(5) 0
B40(5) 0
B41(5) 0
B42(5) 1
B43(5) 0
B44(5) 0
B45(5) 0
B46(5) 0
B47(5) 1
B48(5) 1
B49(5) 0
B50(5) 0
B51(5) 0
B52(5) 1
B53(5) 0
B54(5) 0
B55(5) 0
B56(5) 0
B57(5) 0
B58(5) 0
B59(5) 1
B60(5) 0
B61(5) 0
B62(5) 1
B63(5) 0
B64(5) 0
B65(5) 1
B66(5) 0
B67(5) 0
B68(5) 0
B69(5) 0
B70(5) 1
B71(5) 0
B72(5) 0
B73(5) 0
B74(5) 1
B75(5) 0
B76(5) 0
B77(5) 0
B78(5) 1
B79(5) 0
B80(5) 0
B81(5) 0
B82(5) 1
B83(5) 0
B84(5) 1
B85(5) 0
B86(5) 0
B87(5) 0
B88(5) 1
B89(5) 0
B90(5) 0
B91(5) 0
B92(5) 0
B93(5) 0
B94(5) 1
B95(5) 0
B96(5) 0
B97(5) 1
B98(5) 0
B99(5) 0
B100(5) 0
B101(5) 0
B102(5) 1
B103(5) 0
B104(5) 0
B105(5) 1
B106(5) 0
B107(5) 0
B108(5) 0
B109(5) 1
B110(5) 0
B111(5) 0
B112(5) 0
B113(5) 0
B114(5) 0
B115(5) 1
B116(5) 0
B117(5) 1
B118(5) 0
B119(5) 0
B120(5) 0
B121(5) 0
B122(5) 1
B123(5) 0
B124(5) 0
B125(5) 0
B126(5) 0
B127(5) 1
B128(5) 0
B129(5) 1
B130(5) 0
B131(5) 0
B132(5) 0
B133(5) 1
B134(5) 0
B135(5) 0
B136(5) 0
B137(5) 0
B138(5) 1
B139(5) 0
B140(5) 0
B141(5) 0
B142(5) 0
B143(5) 1
B144(5) 0
B145(5) 0
B146(5) 0
B147(5) 1
B148(5) 0
B149(5) 1
B150(5) 0
B151(5) 0
B152(5) 0
B153(5) 0
B154(5) 0
B155(5) 1
B156(5) 0
B157(5) 1
B158(5) 0
B159(5) 0
B160(5) 1
B161(5) 0
B162(5) 0
B163(5) 0
B164(5) 0
B165(5) 0
B166(5) 1
B167(5) 0
B168(5) 0
B169(5) 0
B170(5) 0
B171(5) 1
B172(5) 0
B173(5) 0
B174(5) 0
B175(5) 1
B176(5) 0
B177(5) 1
B178(5) 0
B179(5) 0
B180(5) 0
B181(5) 0
B182(5) 1
B183(5) 0
B184(5) 0
B185(5) 0
B186(5) 1
B187(5) 0
B188(5) 0
B189(5) 0
B190(5) 1
B191(5) 0
B192(5) 0
B193(5) 1
B194(5) 0
B195(5) 0
B196(5) 0
B197(5) 0
B198(5) 1
B199(5) 0
B200(5) 0
B201(5) 0
B202(5) 1
B203(5) 0
B204(5) 0
B205(5) 0
B206(5) 0
B207(5) 1
B208(5) 0
B209(5) 1
B210(5) 0
B211(5) 0
B212(5) 0
B213(5) 0
B214(5) 1
B215(5) 0
B216(5) 1
B217(5) 0
B218(5) 0
B219(5) 0
B220(5) 0
B221(5) 1
B222(5) 0
B223(5) 0
B224(5) 0
B225(5) 1
B226(5) 0
B227(5) 0
B228(5) 0
B229(5) 1
B230(5) 0
B231(5) 0
B232(5) 0
B233(5) 0
B234(5) 0
B235(5) 1
B236(5) 0
B237(5) 0
B238(5) 1
B239(5) 0
B240(5) 0
B241(5) 1
B242(5) 0
B243(5) 0
B244(5) 0
B245(5) 1
B246(5) 0
B247(5) 0
B248(5) 0
B249(5) 1
B250(5) 0
B251(5) 0
B252(5) 1
B253(5) 0
B254(5) 0
B255(5) 0
B256(5) 1
B257(5) 0
B258(5) 0
B259(5) 0
B260(5) 0
B261(5) 0
B262(5) 1
B263(5) 0
B264(5) 0
B265(5) 0
B266(5) 0
B267(5) 1
B268(5) 0
B269(5) 0
B270(5) 1
B271(5) 0
B272(5) 0
B273(5) 1
B274(5) 0
B275(5) 0
B276(5) 0
B277(5) 0
B278(5) 0
B279(5) 1
B280(5) 0
B281(5) 0
B282(5) 0
B283(5) 1
B284(5) 0
B285(5) 1
B286(5) 0
B287(5) 0
B288(5) 0
B289(5) 0
B290(5) 1
B291(5) 0
B292(5) 0
B293(5) 0
B294(5) 0
B295(5) 1
B296(5) 1
B297(5) 0
B298(5) 0
B299(5) 0
B300(5) 1
B301(5) 0
B302(5) 0
B303(5) 0
B304(5) 0
B305(5) 0
B306(5) 0
B307(5) 1
B308(5) 1
B309(5) 0
B310(5) 0
B311(5) 0
B312(5) 0
B313(5) 1
B314(5) 0
B315(5) 0
B316(5) 0
B317(5) 0
B318(5) 1
B319(5) 0
B320(5) 0
B321(5) 0
B322(5) 1
B323(5) 0
B324(5) 0
B325(5) 1
B326(5) 0
B327(5) 0
B328(0) 0
B329(0) 0
B330(0) 0
B331(0) 0
B332(0) 0
B333(0) 0
B334(0) 0
B335(0) 0
B336(0) 0
B337(0) 0
B338(0) 0
B339(0) 0
B340(0) 0
B341(0) 0
B342(0) 0
B343(0) 0
B344(0) 0
B345(0) 0
B346(0) 0
B347(0) 0
B348(0) 0
B349(0) 0
B350(0) 0
B351(0) 0
B352(0) 0
B353(0) 0
B354(0) 0
B355(0) 0
B356(0) 0
B357(0) 0
B358(0) 0
B359(0) 0
B360(0) 0
B361(0) 0
B362(0) 0
B363(0) 0
B364(0) 0
B365(0) 0
B366(0) 0
B367(0) 0
B368(0) 0
B369(0) 0
B370(0) 0
B371(0) 0
B372(0) 0
B373(0) 0
B374(0) 0
B375(0) 0
B376(0) 0
B377(0) 0
B378(0) 0
B379(0) 0
B380(0) 0
B381(0) 0
B382(0) 0
B383(0) 0
B384(0) 0
B385(0) 0
B386(0) 0
B387(0) 0
B388(0) 0
B389(0) 0
B390(0) 0
B391(0) 0
B392(0) 0
B393(0) 0
B394(0) 0
B395(0) 0
B396(0) 0
B397(0) 0
B398(0) 0
B399(0) 0
B400(0) 0
B401(0) 0
B402(0) 0
B403(0) 0
B404(0) 0
B405(0) 0
B406(0) 0
B407(0) 0
B408(0) 0
B409(0) 0
B410(0) 0
B411(0) 0
B412(0) 0
B413(0) 0
B414(0) 0
B415(0) 0
B416(0) 0
B417(0) 0
B418(0) 0
B419(0) 0
B420(0) 0
B421(0) 0
B422(0) 0
B423(0) 0
B424(0) 0
B425(0) 0
B426(0) 0
B427(0) 0
B428(0) 0
B429(0) 0
B430(0) 0
B431(0) 0
B432(0) 0
B433(0) 0
B434(0) 0
B435(0) 0
B436(0) 0
B437(0) 0
B438(0) 0
B439(0) 0
B440(0) 0
B441(0) 0
B442(0) 0
B443(0) 0
B444(0) 0
B445(0) 0
B446(0) 0
B447(0) 0
B448(0) 0
B449(0) 0
B450(0) 0
B451(0) 0
B452(0) 0
B453(0) 0
B454(0) 0
B455(0) 0
B456(0) 0
B457(0) 0
B458(0) 0
B459(0) 0
B460(0) 0
B461(0) 0
B462(0) 0
B463(0) 0
B464(0) 0
B465(0) 0
B466(0) 0
B467(0) 0
B468(0) 0
B469(0) 0
B470(0) 0
B471(0) 0
B472(0) 0
B473(0) 0
B474(0) 0
B475(0) 0
B476(0) 0
B477(0) 0
B478(0) 0
B479(0) 0
B480(0) 0
B481(0) 0
B482(0) 0
B483(0) 0
B484(0) 0
B485(0) 0
B486(0) 0
B487(0) 0
B488(0) 0
B489(0) 0
B490(0) 0
B491(0) 0
B492(0) 0
B493(0) 0
B494(0) 0
B495(0) 0
B496(0) 0
B497(0) 0
B498(0) 0
B499(0) 0
B500(0) 0
B501(0) 0
B502(0) 0
B503(0) 0
B504(0) 0
B505(0) 0
B506(0) 0
B507(0) 0
B508(0) 0
B509(0) 0
B510(0) 0
B511(0) 0
B512(0) 0
B513(0) 0
B514(0) 0
B515(0) 0
B516(0) 0
B517(0) 0
B518(0) 0
B519(0) 0
B520(0) 0
B521(0) 0
B522(0) 0
B523(0) 0
B524(0) 0
B525(0) 0
B526(0) 0
B527(0) 0
B528(0) 0
B529(0) 0
B530(0) 0
B531(0) 0
B532(0) 0
B533(0) 0
B534(0) 0
B535(0) 0
B536(0) 0
B537(0) 0
B538(0) 0
B539(0) 0
B540(0) 0
B541(0) 0
B542(0) 0
B543(0) 0
B544(0) 0
B545(0) 0
B546(0) 0
B547(0) 0
B548(0) 0
B549(0) 0
B550(0) 0
B551(0) 0
B552(0) 0
B553(0) 0
B554(0) 0
B555(0) 0
B556(0) 0
B557(0) 0
B558(0) 0
B559(0) 0
B560(0) 0
B561(0) 0
B562(0) 0
B563(0) 0
B564(0) 0
B565(0) 0
B566(0) 0
B567(0) 0
B568(0) 0
B569(0) 0
B570(0) 0
B571(0) 0
B572(0) 0
B573(0) 0
B574(0) 0
B575(0) 0
B576(0) 0
B577(0) 0
B578(0) 0
B579(0) 0
B580(0) 0
B581(0) 0
B582(0) 0
B583(0) 0
B584(0) 0
B585(0) 0
B586(0) 0
B587(0) 0
B588(0) 0
B589(0) 0
B590(0) 0
B591(0) 0
B592(0) 0
B593(0) 0
B594(0) 0
B595(0) 0
B596(0) 0
B597(0) 0
B598(0) 0
B599(0) 0
B600(0) 0
B601(0) 0
B602(0) 0
B603(0) 0
B604(0) 0
B605(0) 0
B606(0) 0
B607(0) 0
B608(0) 0
B609(0) 0
B610(0) 0
B611(0) 0
B612(0) 0
B613(0) 0
B614(0) 0
B615(0) 0
B616(0) 0
B617(0) 0
B618(0) 0
B619(0) 0
B620(0) 0
B621(0) 0
B622(0) 0
B623(0) 0
B624(0) 0
B625(0) 0
B626(0) 0
B627(0) 0
B628(0) 0
B629(0) 0
B630(0) 0
B631(0) 0
B632(0) 0
B633(0) 0
B634(0) 0
B635(0) 0
B636(0) 0
B637(0) 0
B638(0) 0
B639(0) 0
B640(0) 0
B641(0) 0
B642(0) 0
B643(0) 0
B644(0) 0
B645(0) 0
B646(0) 0
B647(0) 0
B648(0) 0
B649(0) 0
B650(0) 0
B651(0) 0
B652(0) 0
B653(0) 0
B654(0) 0
B655(0) 0
C656(58) 620030
C657(58) 628684
C658(58) 510621
C659(58) 518264
C660(59) 122130
C661(60) 165161
C662(60) 247770
C663(59) 267902
C664(1) 6.9249684119328386e-02
C665(1) 1.5067073736592415e-01
C666(1) 6.8622902516549789e-01
C667(1) 7.5862701381514608e-01
C668(9) 0
C669(8) 0
C670(8) 0
C671(8) 3.6610320419259587e-02
C672(8) 0
C673(8) 0
C674(8) 0
C675(8) 0
C676(8) 0
C677(8) 0
C678(8) 0
C679(8) 0
C680(8) 0
C681(8) 0
C682(8) 1.3758482186876364e-08
C683(8) 0
C684(8) 0
C685(8) 0
C686(8) 0
C687(8) 0
C688(8) 0
C689(9) 0
C690(8) 0
C691(8) 2.9108117916751047e-01
C692(8) 6.7230848665474774e-01
C693(8) 0
C694(8) 0
C695(8) 0
C696(8) 0
C697(8) 0
C698(8) 0
C699(8) 0
C700(8) 0
C701(8) 0
C702(8) 0
C703(8) 0
C704(8) 0
C705(8) 0
C706(8) 0
C707(8) 0
C708(8) 0
C709(8) 0
B710(2) 1
B711(2) 1
B712(2) 1
B713(2) 0
B714(2) 0
C715(9) 0
C716(8) 0
C717(8) 0
C718(8) 0
C719(8) 0
C720(8) 0
C721(8) 0
C722(8) 7.1817551905439814e-16
C723(8) 2.3742442314810781e-02
C724(8) 0
C725(8) 0
C726(8) 0
C727(8) 0
C728(8) 0
C729(8) 0
C730(8) 0
C731(8) 0
C732(8) 0
C733(8) 0
C734(8) 0
C735(8) 0
C736(9) 0
C737(8) 0
C738(8) 0
C739(8) 0
C740(8) 0
C741(8) 0
C742(8) 0
C743(8) 1.9960459715184464e-01
C744(8) 7.7665296053334387e-01
C745(8) 0
C746(8) 0
C747(8) 0
C748(8) 0
C749(8) 0
C750(8) 0
C751(8) 0
C752(8) 0
C753(8) 0
C754(8) 0
C755(8) 0
C756(8) 0
B757(2) 1
B758(2) 1
B759(2) 0
B760(2) 1
B761(2) 1
C762(10) 0
C763(9) 0
C764(9) 0
C765(9) 0
C766(9) 0
C767(9) 0
C768(9) 0
C769(9) 0
C770(9) 0
C771(9) 0
C772(9) 0
C773(9) 0
C774(9) 0
C775(9) 0
C776(9) 0
C777(9) 0
C778(9) 0
C779(9) 0
C780(9) 0
C781(9) 0
C782(9) 0
C783(9) 0
C784(9) 0
C785(9) 0
C786(9) 0
C787(9) 0
C788(9) 0
C789(9) 0
C790(9) 0
C791(9) 0
C792(9) 0
C793(9) 0
C794(9) 0
C795(9) 0
C796(9) 0
C797(9) 0
C798(9) 0
C799(9) 0
C800(9) 0
C801(9) 0
C802(9) 0.885744164407816
C803(9) 9.0016767062513076e-02
C804(9) 0
C805(9) 0
C806(9) 0
C807(9) 0
C808(9) 0
C809(9) 0
C810(9) 0
C811(9) 0
C812(9) 0
C813(9) 0
C814(9) 0
C815(10) 0
C816(9) 0
C817(9) 0
C818(9) 0
C819(9) 0
C820(9) 0
C821(9) 0
C822(9) 0
C823(9) 0
C824(9) 0
C825(9) 0
C826(9) 0
C827(9) 0
C828(9) 0
C829(9) 0
C830(9) 0
C831(9) 0
C832(9) 0
C833(9) 0
C834(9) 0
C835(9) 0
C836(9) 0
C837(9) 0
C838(9) 0
C839(9) 0
C840(9) 0
C841(9) 0
C842(9) 0
C843(9) 0
C844(9) 0
C845(9) 0
C846(9) 0
C847(9) 0
C848(9) 0
C849(9) 0
C850(9) 0
C851(9) 0
C852(9) 0
C853(9) 0
C854(9) 0
C855(9) 2.4239068529670928e-02
C856(9) 0
C857(9) 0
C858(9) 0
C859(9) 0
C860(9) 0
C861(9) 0
C862(9) 0
C863(9) 0
C864(9) 0
C865(9) 0
C866(9) 0
C867(9) 0
B868(2) 0
B869(2) 0
B870(2) 0
B871(2) 0
B872(2) 1
B873(2) 1
C874(11) 0
C875(10) 0
C876(10) 0
C877(10) 0
C878(10) 0
C879(10) 0
C880(10) 0
C881(10) 0
C882(10) 0
C883(10) 0
C884(10) 0
C885(10) 0
C886(10) 0
C887(10) 0
C888(10) 0
C889(10) 0
C890(10) 0
C891(10) 0
C892(10) 0
C893(10) 0
C894(10) 0
C895(10) 0
C896(10) 0
C897(10) 0
C898(10) 0
C899(10) 0
C900(10) 0
C901(10) 0
C902(10) 0
C903(10) 0
C904(10) 0
C905(10) 0
C906(10) 0
C907(10) 0
C908(10) 0
C909(10) 0
C910(10) 0
C911(10) 0
C912(10) 0
C913(10) 0
C914(10) 0
C915(10) 1.8119520664041205e-01
C916(10) 7.4352048591119013e-01
C917(10) 0
C918(10) 0
C919(10) 0
C920(10) 0
C921(10) 0
C922(10) 0
C923(10) 0
C924(10) 0
C925(10) 0
C926(10) 0
C927(10) 0
C928(10) 0
C929(10) 0
C930(10) 0
C931(10) 0
C932(10) 0
C933(10) 0
C934(10) 0
C935(10) 0
C936(10) 0
C937(10) 0
C938(10) 0
C939(10) 0
C940(11) 0
C941(10) 0
C942(10) 0
C943(10) 0
C944(10) 0
C945(10) 0
C946(10) 0
C947(10) 0
C948(10) 0
C949(10) 0
C950(10) 0
C951(10) 0
C952(10) 0
C953(10) 0
C954(10) 0
C955(10) 0
C956(10) 0
C957(10) 0
C958(10) 0
C959(10) 0
C960(10) 0
C961(10) 0
C962(10) 0
C963(10) 0
C964(10) 0
C965(10) 0
C966(10) 0
C967(10) 0
C968(10) 0
C969(10) 0
C970(10) 0
C971(10) 0
C972(10) 0
C973(10) 0
C974(10) 0
C975(10) 0
C976(10) 0
C977(10) 0
C978(10) 0
C979(10) 0
C980(10) 0
C981(10) 7.5284307448397828e-02
C982(10) 0
C983(10) 0
C984(10) 0
C985(10) 0
C986(10) 0
C987(10) 0
C988(10) 0
C989(10) 0
C990(10) 0
C991(10) 0
C992(10) 0
C993(10) 0
C994(10) 0
C995(10) 0
C996(10) 0
C997(10) 0
C998(10) 0
C999(10) 0
C1000(10) 0
C1001(10) 0
C1002(10) 0
C1003(10) 0
C1004(10) 0
C1005(10) 0
B1006(2) 1
B1007(2) 0
B1008(2) 0
B1009(2) 0
B1010(2) 0
B1011(2) 1
B1012(2) 0
